NAME mip1
OBJSENSE MAX
ROWS
 N  OBJ
 L  c1      
COLUMNS
    MARKER    'MARKER'                 'INTORG'
    x0        OBJ       970045.377302
    x0        c1        7844
    x1        OBJ       1294542.23495
    x1        c1        9601
    x2        OBJ       1292650.9166
    x2        c1        10204
    x3        OBJ       647283.358152
    x3        c1        4999
    x4        OBJ       161490.697299
    x4        c1        1269
    x5        OBJ       1212047.86565
    x5        c1        9250
    x6        OBJ       161560.776002
    x6        c1        1213
    x7        OBJ       323725.98415
    x7        c1        2761
    x8        OBJ       323706.7988
    x8        c1        2719
    x9        OBJ       647385.377299
    x9        c1        5426
    x10       OBJ       484958.6355
    x10       c1        40248
    x11       OBJ       1777293.29725
    x11       c1        12976
    x12       OBJ       323452.51945
    x12       c1        2475
    x13       OBJ       1292313.02695
    x13       c1        13004
    x14       OBJ       323639.948448
    x14       c1        2621
    x15       OBJ       1292568.9874
    x15       c1        10184
    x16       OBJ       647194.111999
    x16       c1        5344
    x17       OBJ       323587.739451
    x17       c1        3850
    x18       OBJ       2587368.38615
    x18       c1        19271
    x19       OBJ       1293347.2591
    x19       c1        9610
    x20       OBJ       323627.859501
    x20       c1        3850
    x21       OBJ       647227.877854
    x21       c1        5004
    x22       OBJ       323677.63695
    x22       c1        2538
    x23       OBJ       1292725.42645
    x23       c1        9566
    x24       OBJ       161658.55865
    x24       c1        1193
    x25       OBJ       1292773.53485
    x25       c1        9786
    x26       OBJ       2263281.06565
    x26       c1        16095
    x27       OBJ       323088.475448
    x27       c1        2488
    x28       OBJ       2261922.02631
    x28       c1        17125
    MARKER    'MARKER'                 'INTEND'
RHS
    RHS1      c1        153418
BOUNDS
 BV BND1      x0      
 BV BND1      x1      
 BV BND1      x2      
 BV BND1      x3      
 BV BND1      x4      
 BV BND1      x5      
 BV BND1      x6      
 BV BND1      x7      
 BV BND1      x8      
 BV BND1      x9      
 BV BND1      x10     
 BV BND1      x11     
 BV BND1      x12     
 BV BND1      x13     
 BV BND1      x14     
 BV BND1      x15     
 BV BND1      x16     
 BV BND1      x17     
 BV BND1      x18     
 BV BND1      x19     
 BV BND1      x20     
 BV BND1      x21     
 BV BND1      x22     
 BV BND1      x23     
 BV BND1      x24     
 BV BND1      x25     
 BV BND1      x26     
 BV BND1      x27     
 BV BND1      x28     
ENDATA
